40
    17    88    28    68    79    94    40    52    64    46    77    23    21    29    41    31    29    81    11    29    93    92    45    70    47     8    78    14    54    25    24    22     4    94    75    58    16    19   100    90
    10     7     2     4     1     8     4    10     7     4     6     1     6     1     3     4    10     2     7     5     4     5     8     9     5     3     5     7     7     6     6     6     3     1     4     7     3     8     7     1
  1338  2062  1669  1534  1564  1391  2193  2223  1373  1713  1026  1743  1537  2199  1243  1534  1179  1214  1727   921  2359  2189  2155  1015  1245  1339   871  1508  2175  1422  1456  1406   926  1038  1128  2146  1942  2078  2042  2013
